# Objective value = 2.9563022113708541e+02
x[0] 0
x[1] 0
x[2] 0
x[3] 0
x[4] 0
x[5] 1
x[6] 0
x[7] 1
x[8] 1
x[9] 1
x[10] 0
x[11] 1
x[12] 1
x[13] 0
x[14] 1
x[15] 1
x[16] 1
x[17] 0
x[18] 0
x[19] 0
x[20] 1
x[21] 1
x[22] 0
x[23] 0
x[24] 1
x[25] 0
x[26] 1
x[27] 0
x[28] 0
x[29] 1
x[30] 0
x[31] 1
x[32] 0
x[33] 0
x[34] 0
x[35] 1
x[36] 0
x[37] 0
x[38] 0
x[39] 0
x[40] 0
x[41] 1
x[42] 0
x[43] 0
x[44] 0
x[45] 1
x[46] 1
x[47] 0
x[48] 1
x[49] 0
x[50] 0
x[51] 0
x[52] 0
x[53] 0
x[54] 0
x[55] 0
x[56] 0
x[57] 1
x[58] 1
x[59] 1
x[60] 1
x[61] 0
x[62] 1
x[63] 1
x[64] 1
x[65] 0
x[66] 0
x[67] 1
x[68] 0
x[69] 0
x[70] 1
x[71] 0
x[72] 1
x[73] 0
x[74] 1
x[75] 1
x[76] 0
x[77] 0
x[78] 0
x[79] 1
x[80] 0
x[81] 0
x[82] 0
x[83] 0
x[84] 0
x[85] 0
x[86] 1
x[87] 1
x[88] 0
x[89] 0
x[90] 0
x[91] 1
x[92] 1
x[93] 1
x[94] 0
x[95] 1
x[96] 0
x[97] 0
x[98] 1
x[99] 1
x[100] 1
x[101] 0
x[102] 0
x[103] 1
x[104] 1
x[105] 1
x[106] 1
x[107] 0
x[108] 1
x[109] 1
x[110] 0
x[111] 0
x[112] 1
x[113] 1
x[114] 0
x[115] 0
x[116] 1
x[117] 1
x[118] 0
x[119] 1
x[120] 0
x[121] 0
x[122] 0
x[123] 0
x[124] 0
x[125] 1
x[126] 0
x[127] 1
x[128] 0
x[129] 1
x[130] 0
x[131] 0
x[132] 1
x[133] 1
x[134] 0
x[135] 0
x[136] 0
x[137] 1
x[138] 1
x[139] 1
x[140] 1
x[141] 0
x[142] 0
x[143] 0
x[144] 0
x[145] 1
x[146] 0
x[147] 1
x[148] 1
x[149] 1
x[150] 0
x[151] 1
x[152] 0
x[153] 0
x[154] 0
x[155] 0
x[156] 0
x[157] 1
x[158] 1
x[159] 1
x[160] 0
x[161] 0
x[162] 1
x[163] 1
x[164] 0
x[165] 0
x[166] 0
x[167] 1
x[168] 1
x[169] 1
x[170] 0
x[171] 0
x[172] 0
x[173] 1
x[174] 1
x[175] 1
x[176] 1
x[177] 0
x[178] 0
x[179] 0
x[180] 0
x[181] 1
x[182] 1
x[183] 0
x[184] 1
x[185] 1
x[186] 0
x[187] 0
x[188] 1
x[189] 1
x[190] 0
x[191] 1
x[192] 1
x[193] 0
x[194] 1
x[195] 1
x[196] 1
x[197] 1
x[198] 0
x[199] 0
x[200] 1
x[201] 0
x[202] 1
x[203] 0
x[204] 0
x[205] 1
x[206] 1
x[207] 0
x[208] 1
x[209] 1
x[210] 1
x[211] 1
x[212] 1
x[213] 1
x[214] 0
x[215] 1
x[216] 1
x[217] 1
x[218] 0
x[219] 1
x[220] 1
x[221] 1
x[222] 0
x[223] 0
x[224] 0
x[225] 1
x[226] 0
x[227] 0
x[228] 0
x[229] 0
x[230] 1
x[231] 0
x[232] 1
x[233] 0
x[234] 0
x[235] 1
x[236] 0
x[237] 1
x[238] 0
x[239] 1
x[240] 0
x[241] 1
x[242] 1
x[243] 0
x[244] 0
x[245] 1
x[246] 0
x[247] 0
x[248] 1
x[249] 0
x[250] 1
x[251] 0
x[252] 0
x[253] 1
x[254] 1
x[255] 1
x[256] 1
x[257] 0
x[258] 1
x[259] 0
x[260] 1
x[261] 1
x[262] 0
x[263] 0
x[264] 0
x[265] 1
x[266] 1
x[267] 0
x[268] 1
x[269] 0
x[270] 0
x[271] 0
x[272] 1
x[273] 0
x[274] 1
x[275] 0
x[276] 1
x[277] 0
x[278] 1
x[279] 0
x[280] 0
x[281] 1
x[282] 1
x[283] 0
x[284] 1
x[285] 1
x[286] 1
x[287] 1
x[288] 1
x[289] 0
x[290] 0
x[291] 1
x[292] 0
x[293] 0
x[294] 1
x[295] 0
x[296] 1
x[297] 1
x[298] 0
x[299] 1
x[300] 1
x[301] 1
x[302] 0
x[303] 0
x[304] 0
x[305] 1
x[306] 0
x[307] 0
x[308] 0
x[309] 1
x[310] 0
x[311] 1
x[312] 0
x[313] 0
x[314] 1
x[315] 1
x[316] 0
x[317] 1
x[318] 1
x[319] 0
x[320] 0
x[321] 0
x[322] 1
x[323] 1
x[324] 1
x[325] 1
x[326] 0
x[327] 1
x[328] 1
x[329] 1
x[330] 1
x[331] 1
x[332] 1
x[333] 0
x[334] 1
x[335] 0
x[336] 0
x[337] 1
x[338] 0
x[339] 1
x[340] 0
x[341] 1
x[342] 1
x[343] 0
x[344] 0
x[345] 0
x[346] 1
x[347] 0
x[348] 0
x[349] 1
x[350] 1
x[351] 0
x[352] 0
x[353] 1
x[354] 0
x[355] 1
x[356] 1
x[357] 0
x[358] 1
x[359] 0
x[360] 1
x[361] 0
x[362] 1
x[363] 0
x[364] 1
x[365] 1
x[366] 1
x[367] 1
x[368] 1
x[369] 0
x[370] 0
x[371] 1
x[372] 0
x[373] 0
x[374] 0
x[375] 1
x[376] 1
x[377] 0
x[378] 0
x[379] 1
x[380] 1
x[381] 1
x[382] 1
x[383] 0
x[384] 1
x[385] 1
x[386] 1
x[387] 1
x[388] 0
x[389] 1
x[390] 1
x[391] 1
x[392] 1
x[393] 0
x[394] 0
x[395] 1
x[396] 0
x[397] 0
x[398] 1
x[399] 1
x[400] 0
x[401] 0
x[402] 0
x[403] 1
x[404] 1
x[405] 1
x[406] 0
x[407] 0
x[408] 1
x[409] 0
x[410] 1
x[411] 1
x[412] 0
x[413] 0
x[414] 1
x[415] 1
x[416] 0
x[417] 0
x[418] 1
x[419] 1
x[420] 1
x[421] 1
x[422] 1
x[423] 0
x[424] 0
x[425] 1
x[426] 0
x[427] 0
x[428] 1
x[429] 1
x[430] 1
x[431] 1
x[432] 1
x[433] 0
x[434] 0
x[435] 1
x[436] 0
x[437] 0
x[438] 1
x[439] 1
x[440] 1
x[441] 1
x[442] 0
x[443] 0
x[444] 0
x[445] 1
x[446] 0
x[447] 0
x[448] 0
x[449] 0
x[450] 0
x[451] 0
x[452] 0
x[453] 1
x[454] 1
x[455] 0
x[456] 0
x[457] 0
x[458] 0
x[459] 0
x[460] 0
x[461] 1
x[462] 1
x[463] 0
x[464] 0
x[465] 1
x[466] 0
x[467] 1
x[468] 0
x[469] 1
x[470] 1
x[471] 1
x[472] 0
x[473] 1
x[474] 0
x[475] 0
x[476] 1
x[477] 1
x[478] 0
x[479] 0
x[480] 1
x[481] 1
x[482] 1
x[483] 0
x[484] 1
x[485] 0
x[486] 1
x[487] 1
x[488] 1
x[489] 0
x[490] 0
x[491] 0
x[492] 1
x[493] 1
x[494] 0
x[495] 1
x[496] 1
x[497] 0
x[498] 1
x[499] 0
x[500] 1
x[501] 0
x[502] 0
x[503] 0
x[504] 0
x[505] 0
x[506] 1
x[507] 0
x[508] 0
x[509] 0
x[510] 0
x[511] 0
x[512] 0
x[513] 0
x[514] 1
x[515] 0
x[516] 0
x[517] 1
x[518] 0
x[519] 1
x[520] 1
x[521] 1
x[522] 0
x[523] 1
x[524] 1
x[525] 1
x[526] 1
x[527] 0
x[528] 0
x[529] 1
x[530] 0
x[531] 0
x[532] 0
x[533] 1
x[534] 1
x[535] 1
x[536] 1
x[537] 0
x[538] 1
x[539] 0
x[540] 1
x[541] 1
x[542] 1
x[543] 0
x[544] 0
x[545] 1
x[546] 1
x[547] 1
x[548] 1
x[549] 1
x[550] 0
x[551] 1
x[552] 0
x[553] 1
x[554] 0
x[555] 0
x[556] 0
x[557] 1
x[558] 1
x[559] 1
x[560] 1
x[561] 0
x[562] 0
x[563] 0
x[564] 1
x[565] 0
x[566] 0
x[567] 0
x[568] 0
x[569] 0
x[570] 0
x[571] 1
x[572] 0
x[573] 0
x[574] 1
x[575] 1
x[576] 0
x[577] 0
x[578] 0
x[579] 1
x[580] 0
x[581] 0
x[582] 0
x[583] 0
x[584] 1
x[585] 1
x[586] 1
x[587] 1
x[588] 0
x[589] 0
x[590] 1
x[591] 0
x[592] 0
x[593] 1
x[594] 0
x[595] 0
x[596] 0
x[597] 0
x[598] 0
x[599] 1
x[600] 0
x[601] 1
x[602] 0
x[603] 1
x[604] 0
x[605] 1
x[606] 1
x[607] 1
x[608] 1
x[609] 0
x[610] 1
x[611] 1
x[612] 0
x[613] 1
x[614] 0
x[615] 1
x[616] 1
x[617] 0
x[618] 0
x[619] 0
x[620] 1
x[621] 1
x[622] 1
x[623] 0
x[624] 1
x[625] 1
x[626] 0
x[627] 1
x[628] 1
x[629] 0
x[630] 1
x[631] 0
x[632] 0
x[633] 1
x[634] 0
x[635] 0
x[636] 1
x[637] 1
x[638] 0
x[639] 1
x[640] 0
x[641] 1
x[642] 0
x[643] 0
x[644] 0
x[645] 0
x[646] 1
x[647] 0
x[648] 0
x[649] 1
x[650] 1
x[651] 1
x[652] 0
x[653] 0
x[654] 1
x[655] 0
x[656] 0
x[657] 1
x[658] 0
x[659] 0
x[660] 0
x[661] 0
x[662] 0
x[663] 0
x[664] 1
x[665] 1
x[666] 0
x[667] 0
x[668] 0
x[669] 0
x[670] 1
x[671] 1
x[672] 1
x[673] 1
x[674] 1
x[675] 1
x[676] 1
x[677] 0
x[678] 0
x[679] 0
x[680] 1
x[681] 0
x[682] 0
x[683] 1
x[684] 1
x[685] 1
x[686] 0
x[687] 0
x[688] 0
x[689] 1
x[690] 0
x[691] 0
x[692] 0
x[693] 0
x[694] 1
x[695] 0
x[696] 0
x[697] 0
x[698] 1
x[699] 0
x[700] 1
x[701] 0
x[702] 1
x[703] 1
x[704] 0
x[705] 0
x[706] 0
x[707] 1
x[708] 0
x[709] 0
x[710] 1
x[711] 0
x[712] 0
x[713] 0
x[714] 0
x[715] 0
x[716] 0
x[717] 0
x[718] 0
x[719] 1
x[720] 1
x[721] 1
x[722] 1
x[723] 0
x[724] 1
x[725] 1
x[726] 1
x[727] 1
x[728] 1
x[729] 1
x[730] 0
x[731] 0
x[732] 0
x[733] 1
x[734] 0
x[735] 0
x[736] 1
x[737] 0
x[738] 1
x[739] 1
x[740] 0
x[741] 0
x[742] 1
x[743] 0
x[744] 1
x[745] 0
x[746] 1
x[747] 0
x[748] 1
x[749] 1
x[750] 0
x[751] 1
x[752] 0
x[753] 0
x[754] 0
x[755] 1
x[756] 0
x[757] 0
x[758] 1
x[759] 0
x[760] 0
x[761] 0
x[762] 0
x[763] 1
x[764] 1
x[765] 0
x[766] 0
x[767] 1
x[768] 1
x[769] 1
x[770] 0
x[771] 0
x[772] 1
x[773] 0
x[774] 1
x[775] 1
x[776] 0
x[777] 0
x[778] 1
x[779] 0
x[780] 0
x[781] 0
x[782] 1
x[783] 0
x[784] 0
x[785] 1
x[786] 0
x[787] 0
x[788] 0
x[789] 1
x[790] 0
x[791] 0
x[792] 1
x[793] 0
x[794] 1
x[795] 1
x[796] 1
x[797] 0
x[798] 1
x[799] 0
x[800] 1
x[801] 1
x[802] 1
x[803] 1
x[804] 1
x[805] 0
x[806] 0
x[807] 0
x[808] 0
x[809] 1
x[810] 1
x[811] 0
x[812] 0
x[813] 1
x[814] 1
x[815] 1
x[816] 0
x[817] 0
x[818] 0
x[819] 1
x[820] 0
x[821] 0
x[822] 1
x[823] 0
x[824] 1
x[825] 1
x[826] 1
x[827] 1
x[828] 1
x[829] 0
x[830] 1
x[831] 1
x[832] 0
x[833] 0
x[834] 0
x[835] 0
x[836] 1
x[837] 0
x[838] 1
x[839] 1
x[840] 1
x[841] 0
x[842] 0
x[843] 1
x[844] 1
x[845] 0
x[846] 0
x[847] 0
x[848] 0
x[849] 1
x[850] 0
x[851] 0
x[852] 0
x[853] 1
x[854] 0
x[855] 0
x[856] 0
x[857] 1
x[858] 1
x[859] 1
x[860] 0
x[861] 0
x[862] 0
x[863] 0
x[864] 1
x[865] 0
x[866] 0
x[867] 0
x[868] 0
x[869] 1
x[870] 1
x[871] 0
x[872] 0
x[873] 1
x[874] 0
x[875] 0
x[876] 0
x[877] 0
x[878] 0
x[879] 1
x[880] 1
x[881] 1
x[882] 0
x[883] 1
x[884] 1
x[885] 1
x[886] 1
x[887] 0
x[888] 0
x[889] 1
x[890] 0
x[891] 1
x[892] 0
x[893] 0
x[894] 0
x[895] 1
x[896] 0
x[897] 1
x[898] 1
x[899] 1
x[900] 1
x[901] 0
x[902] 0
x[903] 0
x[904] 0
x[905] 0
x[906] 0
x[907] 0
x[908] 0
x[909] 1
x[910] 0
x[911] 1
x[912] 1
x[913] 1
x[914] 0
x[915] 1
x[916] 1
x[917] 1
x[918] 0
x[919] 1
x[920] 0
x[921] 1
x[922] 1
x[923] 1
x[924] 0
x[925] 0
x[926] 0
x[927] 0
x[928] 0
x[929] 1
x[930] 1
x[931] 0
x[932] 0
x[933] 1
x[934] 1
x[935] 0
x[936] 1
x[937] 1
x[938] 0
x[939] 1
x[940] 1
x[941] 0
x[942] 0
x[943] 0
x[944] 1
x[945] 1
x[946] 0
x[947] 1
x[948] 1
x[949] 0
x[950] 0
x[951] 0
x[952] 1
x[953] 1
x[954] 0
x[955] 1
x[956] 0
x[957] 1
x[958] 1
x[959] 0
x[960] 1
x[961] 0
x[962] 1
x[963] 1
x[964] 0
x[965] 1
x[966] 1
x[967] 0
x[968] 1
x[969] 0
x[970] 1
x[971] 1
x[972] 1
x[973] 1
x[974] 0
x[975] 0
x[976] 1
x[977] 1
x[978] 0
x[979] 1
x[980] 1
x[981] 0
x[982] 0
x[983] 0
x[984] 0
x[985] 1
x[986] 0
x[987] 0
x[988] 0
x[989] 0
x[990] 0
x[991] 1
x[992] 1
x[993] 1
x[994] 0
x[995] 1
x[996] 1
x[997] 1
x[998] 1
x[999] 1
